% clingo version 5.3.0
% Reading from ...rk_instances/benchmark_instance_5-1.lp ...
% Solving...
% Answer: 3
ANSWER
u_piece(3). u_piece(4). u_piece(5). u_piece(11). l_piece(1,2,6). l_piece(21,22,16). num_u_pieces(4). num_l_pieces(2).
COST 4
OPTIMUM
% 
% Models         : 3
%   Optimum      : yes
% Optimization   : 4
% Calls          : 1
% Time           : 0.009s (Solving: 0.00s 1st Model: 0.00s Unsat: 0.00s)
% CPU Time       : 0.009s
